24
1 0 7
2 0 9
2 1 8
3 0 41
3 1 39
3 2 41
4 0 34
4 1 10
4 2 13
4 3 12
5 0 20
5 1 32
5 2 27
5 3 25
5 4 34
6 0 34
6 1 5
6 2 23
6 3 33
6 4 28
6 5 17
7 0 19
7 1 22
7 2 25
7 3 38
7 4 11
7 5 8
7 6 8
8 0 24
8 1 36
8 2 20
8 3 2
8 4 19
8 5 30
8 6 38
8 7 31
9 0 4
9 1 37
9 2 42
9 3 14
9 4 9
9 5 37
9 6 1
9 7 11
9 8 36
10 0 14
10 1 40
10 2 5
10 3 32
10 4 34
10 5 23
10 6 23
10 7 5
10 8 31
10 9 4
11 0 24
11 1 34
11 2 6
11 3 1
11 4 36
11 5 10
11 6 22
11 7 12
11 8 34
11 9 7
11 10 12
12 0 22
12 1 17
12 2 9
12 3 14
12 4 8
12 5 17
12 6 23
12 7 35
12 8 11
12 9 2
12 10 24
12 11 21
13 0 2
13 1 22
13 2 11
13 3 20
13 4 21
13 5 34
13 6 11
13 7 32
13 8 34
13 9 35
13 10 24
13 11 8
13 12 7
14 0 26
14 1 22
14 2 41
14 3 12
14 4 12
14 5 9
14 6 7
14 7 27
14 8 39
14 9 5
14 10 7
14 11 32
14 12 28
14 13 20
15 0 27
15 1 10
15 2 22
15 3 13
15 4 27
15 5 27
15 6 34
15 7 13
15 8 29
15 9 6
15 10 10
15 11 18
15 12 10
15 13 17
15 14 36
16 0 4
16 1 38
16 2 30
16 3 33
16 4 38
16 5 37
16 6 31
16 7 40
16 8 22
16 9 41
16 10 13
16 11 25
16 12 1
16 13 42
16 14 1
16 15 4
17 0 2
17 1 11
17 2 29
17 3 27
17 4 14
17 5 24
17 6 35
17 7 16
17 8 20
17 9 3
17 10 29
17 11 16
17 12 15
17 13 31
17 14 33
17 15 21
17 16 1
18 0 8
18 1 23
18 2 32
18 3 14
18 4 10
18 5 28
18 6 19
18 7 26
18 8 35
18 9 24
18 10 2
18 11 6
18 12 14
18 13 27
18 14 27
18 15 35
18 16 4
18 17 17
19 0 42
19 1 7
19 2 20
19 3 30
19 4 13
19 5 28
19 6 32
19 7 26
19 8 32
19 9 20
19 10 29
19 11 24
19 12 40
19 13 9
19 14 19
19 15 42
19 16 4
19 17 33
19 18 20
20 0 18
20 1 19
20 2 9
20 3 14
20 4 39
20 5 17
20 6 42
20 7 23
20 8 9
20 9 5
20 10 16
20 11 2
20 12 32
20 13 37
20 14 8
20 15 41
20 16 42
20 17 11
20 18 29
20 19 14
21 0 6
21 1 32
21 2 17
21 3 16
21 4 23
21 5 38
21 6 13
21 7 26
21 8 9
21 9 23
21 10 39
21 11 15
21 12 8
21 13 39
21 14 25
21 15 25
21 16 41
21 17 5
21 18 7
21 19 35
21 20 38
22 0 11
22 1 34
22 2 25
22 3 17
22 4 10
22 5 6
22 6 1
22 7 21
22 8 27
22 9 33
22 10 39
22 11 34
22 12 32
22 13 22
22 14 1
22 15 11
22 16 19
22 17 10
22 18 8
22 19 36
22 20 42
22 21 20
23 0 3
23 1 22
23 2 41
23 3 11
23 4 13
23 5 34
23 6 6
23 7 31
23 8 18
23 9 32
23 10 33
23 11 11
23 12 31
23 13 25
23 14 31
23 15 26
23 16 3
23 17 27
23 18 24
23 19 4
23 20 13
23 21 41
23 22 2
